Minimize
   z: 152 quantity_e_0_0 + 116 quantity_e_1_0 + 116 quantity_e_2_0 + 116 quantity_e_3_0 + 78 quantity_e_4_0 + 198 quantity_e_5_0 + 43 quantity_e_6_0 + 100 quantity_e_7_0 + 145 quantity_e_8_0 + 135 quantity_e_9_0 + 144 quantity_e_10_0 + 159 quantity_e_11_0 + 128 quantity_e_12_0 + 134 quantity_e_13_0 + 34 quantity_e_14_0 + 58 quantity_e_15_0 + 146 quantity_e_16_0 + 115 quantity_e_17_0 + 95 quantity_e_18_0 + 124 quantity_e_19_0 + 100 quantity_e_20_0 + 54 quantity_e_21_0 + 150 quantity_e_22_0 + 99 quantity_e_23_0 + 209 quantity_e_24_0 + 89 quantity_e_25_0 + 179 quantity_e_26_0 + 107 quantity_e_27_0 + 135 quantity_e_28_0 + 161 quantity_e_29_0 + 155 quantity_e_30_0 + 131 quantity_e_31_0 + 138 quantity_e_32_0 + 118 quantity_e_33_0 + 186 quantity_e_34_0 + 173 quantity_e_35_0 - 43 quantity_e_36_0 + 63 quantity_e_37_0 + 211 quantity_e_38_0 + 43 quantity_e_39_0 + 57 quantity_e_40_0 + 49 quantity_e_41_0 + 110 quantity_e_42_0 + 140 quantity_e_43_0 + 232 quantity_e_44_0 + 84 quantity_e_45_0 + 175 quantity_e_46_0 + 236 quantity_e_47_0 + 120 quantity_e_48_0 + 85 quantity_e_49_0 + 171 quantity_e_50_0 + 163 quantity_e_51_0 + 87 quantity_e_52_0 + 42 quantity_e_53_0 + 283 quantity_e_54_0 + 161 quantity_e_55_0 + 245 quantity_e_56_0 + 190 quantity_e_57_0 + 237 quantity_e_58_0 + 155 quantity_e_59_0 + 56 quantity_e_60_0 + 89 quantity_e_61_0 + 151 quantity_e_62_0 + 137 quantity_e_63_0 + 191 quantity_e_64_0 + 63 quantity_e_65_0 + 96 quantity_e_66_0 - 64 quantity_e_67_0 + 207 quantity_e_68_0 + 77 quantity_e_69_0 + 83 quantity_e_70_0 + 209 quantity_e_71_0 + 267 quantity_e_72_0 + 250 quantity_e_73_0 + 202 quantity_e_74_0 + 81 quantity_e_75_0 + 142 quantity_e_0_1 + 119 quantity_e_1_1 + 116 quantity_e_2_1 + 102 quantity_e_3_1 + 80 quantity_e_4_1 + 211 quantity_e_5_1 + 58 quantity_e_6_1 + 103 quantity_e_7_1 + 157 quantity_e_8_1 + 144 quantity_e_9_1 + 152 quantity_e_10_1 + 169 quantity_e_11_1 + 124 quantity_e_12_1 + 135 quantity_e_13_1 + 35 quantity_e_14_1 + 49 quantity_e_15_1 + 158 quantity_e_16_1 + 120 quantity_e_17_1 + 93 quantity_e_18_1 + 119 quantity_e_19_1 + 92 quantity_e_20_1 + 58 quantity_e_21_1 + 132 quantity_e_22_1 + 104 quantity_e_23_1 + 217 quantity_e_24_1 + 83 quantity_e_25_1 + 174 quantity_e_26_1 + 112 quantity_e_27_1 + 145 quantity_e_28_1 + 161 quantity_e_29_1 + 144 quantity_e_30_1 + 138 quantity_e_31_1 + 124 quantity_e_32_1 + 115 quantity_e_33_1 + 196 quantity_e_34_1 + 170 quantity_e_35_1 - 30 quantity_e_36_1 + 70 quantity_e_37_1 + 204 quantity_e_38_1 + 55 quantity_e_39_1 + 54 quantity_e_40_1 + 63 quantity_e_41_1 + 103 quantity_e_42_1 + 151 quantity_e_43_1 + 237 quantity_e_44_1 + 87 quantity_e_45_1 + 179 quantity_e_46_1 + 243 quantity_e_47_1 + 110 quantity_e_48_1 + 75 quantity_e_49_1 + 179 quantity_e_50_1 + 160 quantity_e_51_1 + 92 quantity_e_52_1 + 32 quantity_e_53_1 + 289 quantity_e_54_1 + 173 quantity_e_55_1 + 257 quantity_e_56_1 + 177 quantity_e_57_1 + 255 quantity_e_58_1 + 146 quantity_e_59_1 + 71 quantity_e_60_1 + 106 quantity_e_61_1 + 161 quantity_e_62_1 + 148 quantity_e_63_1 + 189 quantity_e_64_1 + 63 quantity_e_65_1 + 97 quantity_e_66_1 - 62 quantity_e_67_1 + 211 quantity_e_68_1 + 78 quantity_e_69_1 + 85 quantity_e_70_1 + 219 quantity_e_71_1 + 252 quantity_e_72_1 + 239 quantity_e_73_1 + 194 quantity_e_74_1 + 79 quantity_e_75_1 + 158 quantity_e_0_2 + 113 quantity_e_1_2 + 110 quantity_e_2_2 + 102 quantity_e_3_2 + 75 quantity_e_4_2 + 194 quantity_e_5_2 + 39 quantity_e_6_2 + 91 quantity_e_7_2 + 154 quantity_e_8_2 + 143 quantity_e_9_2 + 160 quantity_e_10_2 + 165 quantity_e_11_2 + 134 quantity_e_12_2 + 121 quantity_e_13_2 + 32 quantity_e_14_2 + 49 quantity_e_15_2 + 156 quantity_e_16_2 + 133 quantity_e_17_2 + 89 quantity_e_18_2 + 116 quantity_e_19_2 + 88 quantity_e_20_2 + 53 quantity_e_21_2 + 140 quantity_e_22_2 + 88 quantity_e_23_2 + 216 quantity_e_24_2 + 84 quantity_e_25_2 + 180 quantity_e_26_2 + 100 quantity_e_27_2 + 132 quantity_e_28_2 + 152 quantity_e_29_2 + 164 quantity_e_30_2 + 135 quantity_e_31_2 + 126 quantity_e_32_2 + 118 quantity_e_33_2 + 184 quantity_e_34_2 + 175 quantity_e_35_2 - 36 quantity_e_36_2 + 60 quantity_e_37_2 + 206 quantity_e_38_2 + 54 quantity_e_39_2 + 61 quantity_e_40_2 + 48 quantity_e_41_2 + 111 quantity_e_42_2 + 151 quantity_e_43_2 + 241 quantity_e_44_2 + 81 quantity_e_45_2 + 178 quantity_e_46_2 + 241 quantity_e_47_2 + 109 quantity_e_48_2 + 86 quantity_e_49_2 + 175 quantity_e_50_2 + 146 quantity_e_51_2 + 101 quantity_e_52_2 + 30 quantity_e_53_2 + 279 quantity_e_54_2 + 162 quantity_e_55_2 + 252 quantity_e_56_2 + 178 quantity_e_57_2 + 250 quantity_e_58_2 + 157 quantity_e_59_2 + 68 quantity_e_60_2 + 102 quantity_e_61_2 + 150 quantity_e_62_2 + 147 quantity_e_63_2 + 182 quantity_e_64_2 + 80 quantity_e_65_2 + 106 quantity_e_66_2 - 51 quantity_e_67_2 + 200 quantity_e_68_2 + 71 quantity_e_69_2 + 97 quantity_e_70_2 + 211 quantity_e_71_2 + 260 quantity_e_72_2 + 232 quantity_e_73_2 + 186 quantity_e_74_2 + 80 quantity_e_75_2 + 152 quantity_e_0_3 + 117 quantity_e_1_3 + 125 quantity_e_2_3 + 108 quantity_e_3_3 + 87 quantity_e_4_3 + 205 quantity_e_5_3 + 43 quantity_e_6_3 + 106 quantity_e_7_3 + 156 quantity_e_8_3 + 140 quantity_e_9_3 + 157 quantity_e_10_3 + 166 quantity_e_11_3 + 142 quantity_e_12_3 + 130 quantity_e_13_3 + 18 quantity_e_14_3 + 49 quantity_e_15_3 + 144 quantity_e_16_3 + 131 quantity_e_17_3 + 91 quantity_e_18_3 + 128 quantity_e_19_3 + 91 quantity_e_20_3 + 51 quantity_e_21_3 + 137 quantity_e_22_3 + 86 quantity_e_23_3 + 218 quantity_e_24_3 + 86 quantity_e_25_3 + 180 quantity_e_26_3 + 107 quantity_e_27_3 + 140 quantity_e_28_3 + 162 quantity_e_29_3 + 148 quantity_e_30_3 + 147 quantity_e_31_3 + 123 quantity_e_32_3 + 119 quantity_e_33_3 + 195 quantity_e_34_3 + 165 quantity_e_35_3 - 46 quantity_e_36_3 + 69 quantity_e_37_3 + 205 quantity_e_38_3 + 46 quantity_e_39_3 + 46 quantity_e_40_3 + 58 quantity_e_41_3 + 111 quantity_e_42_3 + 156 quantity_e_43_3 + 224 quantity_e_44_3 + 79 quantity_e_45_3 + 169 quantity_e_46_3 + 240 quantity_e_47_3 + 122 quantity_e_48_3 + 75 quantity_e_49_3 + 177 quantity_e_50_3 + 164 quantity_e_51_3 + 96 quantity_e_52_3 + 40 quantity_e_53_3 + 278 quantity_e_54_3 + 176 quantity_e_55_3 + 258 quantity_e_56_3 + 195 quantity_e_57_3 + 249 quantity_e_58_3 + 138 quantity_e_59_3 + 60 quantity_e_60_3 + 91 quantity_e_61_3 + 167 quantity_e_62_3 + 140 quantity_e_63_3 + 200 quantity_e_64_3 + 75 quantity_e_65_3 + 98 quantity_e_66_3 - 52 quantity_e_67_3 + 194 quantity_e_68_3 + 76 quantity_e_69_3 + 80 quantity_e_70_3 + 219 quantity_e_71_3 + 260 quantity_e_72_3 + 245 quantity_e_73_3 + 194 quantity_e_74_3 + 78 quantity_e_75_3
Subject to
   contraite_20_0: quantity_e_32_0 - quantity_e_33_0 = 855
   contraite_8_0: quantity_e_12_0 + quantity_e_14_0 + quantity_e_33_0 + quantity_e_35_0 - quantity_e_13_0 - quantity_e_15_0 - quantity_e_32_0 - quantity_e_34_0 = 145
   contraite_16_0: quantity_e_62_0 - quantity_e_61_0 = 420
   contraite_2_0: quantity_e_11_0 + quantity_e_13_0 + quantity_e_15_0 + quantity_e_17_0 - quantity_e_10_0 - quantity_e_12_0 - quantity_e_14_0 - quantity_e_16_0 = 870
   contraite_19_0: quantity_e_56_0 + quantity_e_61_0 - quantity_e_57_0 - quantity_e_62_0 = 0
   contraite_23_0: quantity_e_34_0 + quantity_e_38_0 + quantity_e_67_0 - quantity_e_35_0 - quantity_e_39_0 - quantity_e_68_0 = 0
   contraite_20_1: quantity_e_32_1 - quantity_e_33_1 = 161
   contraite_8_1: quantity_e_12_1 + quantity_e_14_1 + quantity_e_33_1 + quantity_e_35_1 - quantity_e_13_1 - quantity_e_15_1 - quantity_e_32_1 - quantity_e_34_1 = 451
   contraite_16_1: quantity_e_62_1 - quantity_e_61_1 = 489
   contraite_2_1: quantity_e_11_1 + quantity_e_13_1 + quantity_e_15_1 + quantity_e_17_1 - quantity_e_10_1 - quantity_e_12_1 - quantity_e_14_1 - quantity_e_16_1 = 0
   contraite_19_1: quantity_e_56_1 + quantity_e_61_1 - quantity_e_57_1 - quantity_e_62_1 = 0
   contraite_23_1: quantity_e_34_1 + quantity_e_38_1 + quantity_e_67_1 - quantity_e_35_1 - quantity_e_39_1 - quantity_e_68_1 = 0
   contraite_20_2: quantity_e_32_2 - quantity_e_33_2 = 0
   contraite_8_2: quantity_e_12_2 + quantity_e_14_2 + quantity_e_33_2 + quantity_e_35_2 - quantity_e_13_2 - quantity_e_15_2 - quantity_e_32_2 - quantity_e_34_2 = 621
   contraite_16_2: quantity_e_62_2 - quantity_e_61_2 = 592
   contraite_2_2: quantity_e_11_2 + quantity_e_13_2 + quantity_e_15_2 + quantity_e_17_2 - quantity_e_10_2 - quantity_e_12_2 - quantity_e_14_2 - quantity_e_16_2 = 0
   contraite_19_2: quantity_e_56_2 + quantity_e_61_2 - quantity_e_57_2 - quantity_e_62_2 = 0
   contraite_23_2: quantity_e_34_2 + quantity_e_38_2 + quantity_e_67_2 - quantity_e_35_2 - quantity_e_39_2 - quantity_e_68_2 = 326
   contraite_20_3: quantity_e_32_3 - quantity_e_33_3 = 403
   contraite_8_3: quantity_e_12_3 + quantity_e_14_3 + quantity_e_33_3 + quantity_e_35_3 - quantity_e_13_3 - quantity_e_15_3 - quantity_e_32_3 - quantity_e_34_3 = 367
   contraite_16_3: quantity_e_62_3 - quantity_e_61_3 = 56
   contraite_2_3: quantity_e_11_3 + quantity_e_13_3 + quantity_e_15_3 + quantity_e_17_3 - quantity_e_10_3 - quantity_e_12_3 - quantity_e_14_3 - quantity_e_16_3 = 445
   contraite_19_3: quantity_e_56_3 + quantity_e_61_3 - quantity_e_57_3 - quantity_e_62_3 = 447
   contraite_23_3: quantity_e_34_3 + quantity_e_38_3 + quantity_e_67_3 - quantity_e_35_3 - quantity_e_39_3 - quantity_e_68_3 = 225
   contraite_7_0: quantity_e_9_0 + quantity_e_30_0 - quantity_e_8_0 - quantity_e_31_0 <= 0
   contraite_1_0: quantity_e_6_0 + quantity_e_8_0 - quantity_e_7_0 - quantity_e_9_0 <= 961
   contraite_11_0: quantity_e_7_0 + quantity_e_47_0 + quantity_e_52_0 - quantity_e_6_0 - quantity_e_46_0 - quantity_e_53_0 <= 902
   contraite_24_0: quantity_e_31_0 + quantity_e_53_0 + quantity_e_74_0 - quantity_e_30_0 - quantity_e_52_0 - quantity_e_73_0 <= 429
   contraite_3_0: quantity_e_18_0 + quantity_e_20_0 - quantity_e_19_0 - quantity_e_21_0 <= 0
   contraite_7_1: quantity_e_9_1 + quantity_e_30_1 - quantity_e_8_1 - quantity_e_31_1 <= 733
   contraite_1_1: quantity_e_6_1 + quantity_e_8_1 - quantity_e_7_1 - quantity_e_9_1 <= 0
   contraite_11_1: quantity_e_7_1 + quantity_e_47_1 + quantity_e_52_1 - quantity_e_6_1 - quantity_e_46_1 - quantity_e_53_1 <= 0
   contraite_24_1: quantity_e_31_1 + quantity_e_53_1 + quantity_e_74_1 - quantity_e_30_1 - quantity_e_52_1 - quantity_e_73_1 <= 369
   contraite_3_1: quantity_e_18_1 + quantity_e_20_1 - quantity_e_19_1 - quantity_e_21_1 <= 0
   contraite_7_2: quantity_e_9_2 + quantity_e_30_2 - quantity_e_8_2 - quantity_e_31_2 <= 317
   contraite_1_2: quantity_e_6_2 + quantity_e_8_2 - quantity_e_7_2 - quantity_e_9_2 <= 124
   contraite_11_2: quantity_e_7_2 + quantity_e_47_2 + quantity_e_52_2 - quantity_e_6_2 - quantity_e_46_2 - quantity_e_53_2 <= 0
   contraite_24_2: quantity_e_31_2 + quantity_e_53_2 + quantity_e_74_2 - quantity_e_30_2 - quantity_e_52_2 - quantity_e_73_2 <= 227
   contraite_3_2: quantity_e_18_2 + quantity_e_20_2 - quantity_e_19_2 - quantity_e_21_2 <= 872
   contraite_7_3: quantity_e_9_3 + quantity_e_30_3 - quantity_e_8_3 - quantity_e_31_3 <= 0
   contraite_1_3: quantity_e_6_3 + quantity_e_8_3 - quantity_e_7_3 - quantity_e_9_3 <= 427
   contraite_11_3: quantity_e_7_3 + quantity_e_47_3 + quantity_e_52_3 - quantity_e_6_3 - quantity_e_46_3 - quantity_e_53_3 <= 531
   contraite_24_3: quantity_e_31_3 + quantity_e_53_3 + quantity_e_74_3 - quantity_e_30_3 - quantity_e_52_3 - quantity_e_73_3 <= 766
   contraite_3_3: quantity_e_18_3 + quantity_e_20_3 - quantity_e_19_3 - quantity_e_21_3 <= 222
   contraite_0_0: quantity_e_1_0 + quantity_e_3_0 + quantity_e_5_0 - quantity_e_0_0 - quantity_e_2_0 - quantity_e_4_0 = 0
   contraite_4_0: quantity_e_23_0 - quantity_e_22_0 = 0
   contraite_5_0: quantity_e_25_0 - quantity_e_24_0 = 0
   contraite_6_0: quantity_e_27_0 + quantity_e_29_0 - quantity_e_26_0 - quantity_e_28_0 = 0
   contraite_9_0: quantity_e_28_0 + quantity_e_37_0 + quantity_e_39_0 + quantity_e_41_0 + quantity_e_43_0 - quantity_e_29_0 - quantity_e_36_0 - quantity_e_38_0 - quantity_e_40_0 - quantity_e_42_0 = 0
   contraite_10_0: quantity_e_45_0 + quantity_e_47_0 + quantity_e_49_0 + quantity_e_51_0 - quantity_e_44_0 - quantity_e_46_0 - quantity_e_48_0 - quantity_e_50_0 = 0
   contraite_12_0: quantity_e_2_0 + quantity_e_50_0 + quantity_e_55_0 + quantity_e_57_0 + quantity_e_59_0 - quantity_e_3_0 - quantity_e_51_0 - quantity_e_54_0 - quantity_e_56_0 - quantity_e_58_0 = 0
   contraite_13_0: quantity_e_20_0 + quantity_e_48_0 - quantity_e_21_0 - quantity_e_49_0 = 0
   contraite_14_0: quantity_e_18_0 + quantity_e_22_0 + quantity_e_54_0 - quantity_e_19_0 - quantity_e_23_0 - quantity_e_55_0 = 0
   contraite_15_0: quantity_e_44_0 - quantity_e_45_0 = 0
   contraite_17_0: quantity_e_4_0 + quantity_e_10_0 + quantity_e_36_0 + quantity_e_64_0 + quantity_e_66_0 - quantity_e_5_0 - quantity_e_11_0 - quantity_e_37_0 - quantity_e_63_0 - quantity_e_65_0 = 0
   contraite_18_0: quantity_e_0_0 + quantity_e_16_0 + quantity_e_68_0 + quantity_e_70_0 - quantity_e_1_0 - quantity_e_17_0 - quantity_e_67_0 - quantity_e_69_0 = 0
   contraite_21_0: quantity_e_58_0 + quantity_e_72_0 - quantity_e_59_0 - quantity_e_71_0 = 0
   contraite_22_0: quantity_e_24_0 + quantity_e_63_0 + quantity_e_71_0 + quantity_e_74_0 - quantity_e_25_0 - quantity_e_64_0 - quantity_e_72_0 - quantity_e_73_0 = 0
   contraite_25_0: quantity_e_26_0 + quantity_e_40_0 + quantity_e_42_0 + quantity_e_65_0 + quantity_e_69_0 - quantity_e_27_0 - quantity_e_41_0 - quantity_e_43_0 - quantity_e_66_0 - quantity_e_70_0 = 0
   contraite_0_1: quantity_e_1_1 + quantity_e_3_1 + quantity_e_5_1 - quantity_e_0_1 - quantity_e_2_1 - quantity_e_4_1 = 0
   contraite_4_1: quantity_e_23_1 - quantity_e_22_1 = 0
   contraite_5_1: quantity_e_25_1 - quantity_e_24_1 = 0
   contraite_6_1: quantity_e_27_1 + quantity_e_29_1 - quantity_e_26_1 - quantity_e_28_1 = 0
   contraite_9_1: quantity_e_28_1 + quantity_e_37_1 + quantity_e_39_1 + quantity_e_41_1 + quantity_e_43_1 - quantity_e_29_1 - quantity_e_36_1 - quantity_e_38_1 - quantity_e_40_1 - quantity_e_42_1 = 0
   contraite_10_1: quantity_e_45_1 + quantity_e_47_1 + quantity_e_49_1 + quantity_e_51_1 - quantity_e_44_1 - quantity_e_46_1 - quantity_e_48_1 - quantity_e_50_1 = 0
   contraite_12_1: quantity_e_2_1 + quantity_e_50_1 + quantity_e_55_1 + quantity_e_57_1 + quantity_e_59_1 - quantity_e_3_1 - quantity_e_51_1 - quantity_e_54_1 - quantity_e_56_1 - quantity_e_58_1 = 0
   contraite_13_1: quantity_e_20_1 + quantity_e_48_1 - quantity_e_21_1 - quantity_e_49_1 = 0
   contraite_14_1: quantity_e_18_1 + quantity_e_22_1 + quantity_e_54_1 - quantity_e_19_1 - quantity_e_23_1 - quantity_e_55_1 = 0
   contraite_15_1: quantity_e_44_1 - quantity_e_45_1 = 0
   contraite_17_1: quantity_e_4_1 + quantity_e_10_1 + quantity_e_36_1 + quantity_e_64_1 + quantity_e_66_1 - quantity_e_5_1 - quantity_e_11_1 - quantity_e_37_1 - quantity_e_63_1 - quantity_e_65_1 = 0
   contraite_18_1: quantity_e_0_1 + quantity_e_16_1 + quantity_e_68_1 + quantity_e_70_1 - quantity_e_1_1 - quantity_e_17_1 - quantity_e_67_1 - quantity_e_69_1 = 0
   contraite_21_1: quantity_e_58_1 + quantity_e_72_1 - quantity_e_59_1 - quantity_e_71_1 = 0
   contraite_22_1: quantity_e_24_1 + quantity_e_63_1 + quantity_e_71_1 + quantity_e_74_1 - quantity_e_25_1 - quantity_e_64_1 - quantity_e_72_1 - quantity_e_73_1 = 0
   contraite_25_1: quantity_e_26_1 + quantity_e_40_1 + quantity_e_42_1 + quantity_e_65_1 + quantity_e_69_1 - quantity_e_27_1 - quantity_e_41_1 - quantity_e_43_1 - quantity_e_66_1 - quantity_e_70_1 = 0
   contraite_0_2: quantity_e_1_2 + quantity_e_3_2 + quantity_e_5_2 - quantity_e_0_2 - quantity_e_2_2 - quantity_e_4_2 = 0
   contraite_4_2: quantity_e_23_2 - quantity_e_22_2 = 0
   contraite_5_2: quantity_e_25_2 - quantity_e_24_2 = 0
   contraite_6_2: quantity_e_27_2 + quantity_e_29_2 - quantity_e_26_2 - quantity_e_28_2 = 0
   contraite_9_2: quantity_e_28_2 + quantity_e_37_2 + quantity_e_39_2 + quantity_e_41_2 + quantity_e_43_2 - quantity_e_29_2 - quantity_e_36_2 - quantity_e_38_2 - quantity_e_40_2 - quantity_e_42_2 = 0
   contraite_10_2: quantity_e_45_2 + quantity_e_47_2 + quantity_e_49_2 + quantity_e_51_2 - quantity_e_44_2 - quantity_e_46_2 - quantity_e_48_2 - quantity_e_50_2 = 0
   contraite_12_2: quantity_e_2_2 + quantity_e_50_2 + quantity_e_55_2 + quantity_e_57_2 + quantity_e_59_2 - quantity_e_3_2 - quantity_e_51_2 - quantity_e_54_2 - quantity_e_56_2 - quantity_e_58_2 = 0
   contraite_13_2: quantity_e_20_2 + quantity_e_48_2 - quantity_e_21_2 - quantity_e_49_2 = 0
   contraite_14_2: quantity_e_18_2 + quantity_e_22_2 + quantity_e_54_2 - quantity_e_19_2 - quantity_e_23_2 - quantity_e_55_2 = 0
   contraite_15_2: quantity_e_44_2 - quantity_e_45_2 = 0
   contraite_17_2: quantity_e_4_2 + quantity_e_10_2 + quantity_e_36_2 + quantity_e_64_2 + quantity_e_66_2 - quantity_e_5_2 - quantity_e_11_2 - quantity_e_37_2 - quantity_e_63_2 - quantity_e_65_2 = 0
   contraite_18_2: quantity_e_0_2 + quantity_e_16_2 + quantity_e_68_2 + quantity_e_70_2 - quantity_e_1_2 - quantity_e_17_2 - quantity_e_67_2 - quantity_e_69_2 = 0
   contraite_21_2: quantity_e_58_2 + quantity_e_72_2 - quantity_e_59_2 - quantity_e_71_2 = 0
   contraite_22_2: quantity_e_24_2 + quantity_e_63_2 + quantity_e_71_2 + quantity_e_74_2 - quantity_e_25_2 - quantity_e_64_2 - quantity_e_72_2 - quantity_e_73_2 = 0
   contraite_25_2: quantity_e_26_2 + quantity_e_40_2 + quantity_e_42_2 + quantity_e_65_2 + quantity_e_69_2 - quantity_e_27_2 - quantity_e_41_2 - quantity_e_43_2 - quantity_e_66_2 - quantity_e_70_2 = 0
   contraite_0_3: quantity_e_1_3 + quantity_e_3_3 + quantity_e_5_3 - quantity_e_0_3 - quantity_e_2_3 - quantity_e_4_3 = 0
   contraite_4_3: quantity_e_23_3 - quantity_e_22_3 = 0
   contraite_5_3: quantity_e_25_3 - quantity_e_24_3 = 0
   contraite_6_3: quantity_e_27_3 + quantity_e_29_3 - quantity_e_26_3 - quantity_e_28_3 = 0
   contraite_9_3: quantity_e_28_3 + quantity_e_37_3 + quantity_e_39_3 + quantity_e_41_3 + quantity_e_43_3 - quantity_e_29_3 - quantity_e_36_3 - quantity_e_38_3 - quantity_e_40_3 - quantity_e_42_3 = 0
   contraite_10_3: quantity_e_45_3 + quantity_e_47_3 + quantity_e_49_3 + quantity_e_51_3 - quantity_e_44_3 - quantity_e_46_3 - quantity_e_48_3 - quantity_e_50_3 = 0
   contraite_12_3: quantity_e_2_3 + quantity_e_50_3 + quantity_e_55_3 + quantity_e_57_3 + quantity_e_59_3 - quantity_e_3_3 - quantity_e_51_3 - quantity_e_54_3 - quantity_e_56_3 - quantity_e_58_3 = 0
   contraite_13_3: quantity_e_20_3 + quantity_e_48_3 - quantity_e_21_3 - quantity_e_49_3 = 0
   contraite_14_3: quantity_e_18_3 + quantity_e_22_3 + quantity_e_54_3 - quantity_e_19_3 - quantity_e_23_3 - quantity_e_55_3 = 0
   contraite_15_3: quantity_e_44_3 - quantity_e_45_3 = 0
   contraite_17_3: quantity_e_4_3 + quantity_e_10_3 + quantity_e_36_3 + quantity_e_64_3 + quantity_e_66_3 - quantity_e_5_3 - quantity_e_11_3 - quantity_e_37_3 - quantity_e_63_3 - quantity_e_65_3 = 0
   contraite_18_3: quantity_e_0_3 + quantity_e_16_3 + quantity_e_68_3 + quantity_e_70_3 - quantity_e_1_3 - quantity_e_17_3 - quantity_e_67_3 - quantity_e_69_3 = 0
   contraite_21_3: quantity_e_58_3 + quantity_e_72_3 - quantity_e_59_3 - quantity_e_71_3 = 0
   contraite_22_3: quantity_e_24_3 + quantity_e_63_3 + quantity_e_71_3 + quantity_e_74_3 - quantity_e_25_3 - quantity_e_64_3 - quantity_e_72_3 - quantity_e_73_3 = 0
   contraite_25_3: quantity_e_26_3 + quantity_e_40_3 + quantity_e_42_3 + quantity_e_65_3 + quantity_e_69_3 - quantity_e_27_3 - quantity_e_41_3 - quantity_e_43_3 - quantity_e_66_3 - quantity_e_70_3 = 0
Bounds
   quantity_e_0_0 >= 0
   quantity_e_1_0 >= 0
   quantity_e_2_0 >= 0
   quantity_e_3_0 >= 0
   quantity_e_4_0 >= 0
   quantity_e_5_0 >= 0
   quantity_e_6_0 >= 0
   quantity_e_7_0 >= 0
   quantity_e_8_0 >= 0
   quantity_e_9_0 >= 0
   quantity_e_10_0 >= 0
   quantity_e_11_0 >= 0
   quantity_e_12_0 >= 0
   quantity_e_13_0 >= 0
   quantity_e_14_0 >= 0
   quantity_e_15_0 >= 0
   quantity_e_16_0 >= 0
   quantity_e_17_0 >= 0
   quantity_e_18_0 >= 0
   quantity_e_19_0 >= 0
   quantity_e_20_0 >= 0
   quantity_e_21_0 >= 0
   quantity_e_22_0 >= 0
   quantity_e_23_0 >= 0
   quantity_e_24_0 >= 0
   quantity_e_25_0 >= 0
   quantity_e_26_0 >= 0
   quantity_e_27_0 >= 0
   quantity_e_28_0 >= 0
   quantity_e_29_0 >= 0
   quantity_e_30_0 >= 0
   quantity_e_31_0 >= 0
   quantity_e_32_0 >= 0
   quantity_e_33_0 >= 0
   quantity_e_34_0 >= 0
   quantity_e_35_0 >= 0
   quantity_e_36_0 >= 0
   quantity_e_37_0 >= 0
   quantity_e_38_0 >= 0
   quantity_e_39_0 >= 0
   quantity_e_40_0 >= 0
   quantity_e_41_0 >= 0
   quantity_e_42_0 >= 0
   quantity_e_43_0 >= 0
   quantity_e_44_0 >= 0
   quantity_e_45_0 >= 0
   quantity_e_46_0 >= 0
   quantity_e_47_0 >= 0
   quantity_e_48_0 >= 0
   quantity_e_49_0 >= 0
   quantity_e_50_0 >= 0
   quantity_e_51_0 >= 0
   quantity_e_52_0 >= 0
   quantity_e_53_0 >= 0
   quantity_e_54_0 >= 0
   quantity_e_55_0 >= 0
   quantity_e_56_0 >= 0
   quantity_e_57_0 >= 0
   quantity_e_58_0 >= 0
   quantity_e_59_0 >= 0
   quantity_e_60_0 >= 0
   quantity_e_61_0 >= 0
   quantity_e_62_0 >= 0
   quantity_e_63_0 >= 0
   quantity_e_64_0 >= 0
   quantity_e_65_0 >= 0
   quantity_e_66_0 >= 0
   quantity_e_67_0 >= 0
   quantity_e_68_0 >= 0
   quantity_e_69_0 >= 0
   quantity_e_70_0 >= 0
   quantity_e_71_0 >= 0
   quantity_e_72_0 >= 0
   quantity_e_73_0 >= 0
   quantity_e_74_0 >= 0
   quantity_e_75_0 >= 0
   quantity_e_0_1 >= 0
   quantity_e_1_1 >= 0
   quantity_e_2_1 >= 0
   quantity_e_3_1 >= 0
   quantity_e_4_1 >= 0
   quantity_e_5_1 >= 0
   quantity_e_6_1 >= 0
   quantity_e_7_1 >= 0
   quantity_e_8_1 >= 0
   quantity_e_9_1 >= 0
   quantity_e_10_1 >= 0
   quantity_e_11_1 >= 0
   quantity_e_12_1 >= 0
   quantity_e_13_1 >= 0
   quantity_e_14_1 >= 0
   quantity_e_15_1 >= 0
   quantity_e_16_1 >= 0
   quantity_e_17_1 >= 0
   quantity_e_18_1 >= 0
   quantity_e_19_1 >= 0
   quantity_e_20_1 >= 0
   quantity_e_21_1 >= 0
   quantity_e_22_1 >= 0
   quantity_e_23_1 >= 0
   quantity_e_24_1 >= 0
   quantity_e_25_1 >= 0
   quantity_e_26_1 >= 0
   quantity_e_27_1 >= 0
   quantity_e_28_1 >= 0
   quantity_e_29_1 >= 0
   quantity_e_30_1 >= 0
   quantity_e_31_1 >= 0
   quantity_e_32_1 >= 0
   quantity_e_33_1 >= 0
   quantity_e_34_1 >= 0
   quantity_e_35_1 >= 0
   quantity_e_36_1 >= 0
   quantity_e_37_1 >= 0
   quantity_e_38_1 >= 0
   quantity_e_39_1 >= 0
   quantity_e_40_1 >= 0
   quantity_e_41_1 >= 0
   quantity_e_42_1 >= 0
   quantity_e_43_1 >= 0
   quantity_e_44_1 >= 0
   quantity_e_45_1 >= 0
   quantity_e_46_1 >= 0
   quantity_e_47_1 >= 0
   quantity_e_48_1 >= 0
   quantity_e_49_1 >= 0
   quantity_e_50_1 >= 0
   quantity_e_51_1 >= 0
   quantity_e_52_1 >= 0
   quantity_e_53_1 >= 0
   quantity_e_54_1 >= 0
   quantity_e_55_1 >= 0
   quantity_e_56_1 >= 0
   quantity_e_57_1 >= 0
   quantity_e_58_1 >= 0
   quantity_e_59_1 >= 0
   quantity_e_60_1 >= 0
   quantity_e_61_1 >= 0
   quantity_e_62_1 >= 0
   quantity_e_63_1 >= 0
   quantity_e_64_1 >= 0
   quantity_e_65_1 >= 0
   quantity_e_66_1 >= 0
   quantity_e_67_1 >= 0
   quantity_e_68_1 >= 0
   quantity_e_69_1 >= 0
   quantity_e_70_1 >= 0
   quantity_e_71_1 >= 0
   quantity_e_72_1 >= 0
   quantity_e_73_1 >= 0
   quantity_e_74_1 >= 0
   quantity_e_75_1 >= 0
   quantity_e_0_2 >= 0
   quantity_e_1_2 >= 0
   quantity_e_2_2 >= 0
   quantity_e_3_2 >= 0
   quantity_e_4_2 >= 0
   quantity_e_5_2 >= 0
   quantity_e_6_2 >= 0
   quantity_e_7_2 >= 0
   quantity_e_8_2 >= 0
   quantity_e_9_2 >= 0
   quantity_e_10_2 >= 0
   quantity_e_11_2 >= 0
   quantity_e_12_2 >= 0
   quantity_e_13_2 >= 0
   quantity_e_14_2 >= 0
   quantity_e_15_2 >= 0
   quantity_e_16_2 >= 0
   quantity_e_17_2 >= 0
   quantity_e_18_2 >= 0
   quantity_e_19_2 >= 0
   quantity_e_20_2 >= 0
   quantity_e_21_2 >= 0
   quantity_e_22_2 >= 0
   quantity_e_23_2 >= 0
   quantity_e_24_2 >= 0
   quantity_e_25_2 >= 0
   quantity_e_26_2 >= 0
   quantity_e_27_2 >= 0
   quantity_e_28_2 >= 0
   quantity_e_29_2 >= 0
   quantity_e_30_2 >= 0
   quantity_e_31_2 >= 0
   quantity_e_32_2 >= 0
   quantity_e_33_2 >= 0
   quantity_e_34_2 >= 0
   quantity_e_35_2 >= 0
   quantity_e_36_2 >= 0
   quantity_e_37_2 >= 0
   quantity_e_38_2 >= 0
   quantity_e_39_2 >= 0
   quantity_e_40_2 >= 0
   quantity_e_41_2 >= 0
   quantity_e_42_2 >= 0
   quantity_e_43_2 >= 0
   quantity_e_44_2 >= 0
   quantity_e_45_2 >= 0
   quantity_e_46_2 >= 0
   quantity_e_47_2 >= 0
   quantity_e_48_2 >= 0
   quantity_e_49_2 >= 0
   quantity_e_50_2 >= 0
   quantity_e_51_2 >= 0
   quantity_e_52_2 >= 0
   quantity_e_53_2 >= 0
   quantity_e_54_2 >= 0
   quantity_e_55_2 >= 0
   quantity_e_56_2 >= 0
   quantity_e_57_2 >= 0
   quantity_e_58_2 >= 0
   quantity_e_59_2 >= 0
   quantity_e_60_2 >= 0
   quantity_e_61_2 >= 0
   quantity_e_62_2 >= 0
   quantity_e_63_2 >= 0
   quantity_e_64_2 >= 0
   quantity_e_65_2 >= 0
   quantity_e_66_2 >= 0
   quantity_e_67_2 >= 0
   quantity_e_68_2 >= 0
   quantity_e_69_2 >= 0
   quantity_e_70_2 >= 0
   quantity_e_71_2 >= 0
   quantity_e_72_2 >= 0
   quantity_e_73_2 >= 0
   quantity_e_74_2 >= 0
   quantity_e_75_2 >= 0
   quantity_e_0_3 >= 0
   quantity_e_1_3 >= 0
   quantity_e_2_3 >= 0
   quantity_e_3_3 >= 0
   quantity_e_4_3 >= 0
   quantity_e_5_3 >= 0
   quantity_e_6_3 >= 0
   quantity_e_7_3 >= 0
   quantity_e_8_3 >= 0
   quantity_e_9_3 >= 0
   quantity_e_10_3 >= 0
   quantity_e_11_3 >= 0
   quantity_e_12_3 >= 0
   quantity_e_13_3 >= 0
   quantity_e_14_3 >= 0
   quantity_e_15_3 >= 0
   quantity_e_16_3 >= 0
   quantity_e_17_3 >= 0
   quantity_e_18_3 >= 0
   quantity_e_19_3 >= 0
   quantity_e_20_3 >= 0
   quantity_e_21_3 >= 0
   quantity_e_22_3 >= 0
   quantity_e_23_3 >= 0
   quantity_e_24_3 >= 0
   quantity_e_25_3 >= 0
   quantity_e_26_3 >= 0
   quantity_e_27_3 >= 0
   quantity_e_28_3 >= 0
   quantity_e_29_3 >= 0
   quantity_e_30_3 >= 0
   quantity_e_31_3 >= 0
   quantity_e_32_3 >= 0
   quantity_e_33_3 >= 0
   quantity_e_34_3 >= 0
   quantity_e_35_3 >= 0
   quantity_e_36_3 >= 0
   quantity_e_37_3 >= 0
   quantity_e_38_3 >= 0
   quantity_e_39_3 >= 0
   quantity_e_40_3 >= 0
   quantity_e_41_3 >= 0
   quantity_e_42_3 >= 0
   quantity_e_43_3 >= 0
   quantity_e_44_3 >= 0
   quantity_e_45_3 >= 0
   quantity_e_46_3 >= 0
   quantity_e_47_3 >= 0
   quantity_e_48_3 >= 0
   quantity_e_49_3 >= 0
   quantity_e_50_3 >= 0
   quantity_e_51_3 >= 0
   quantity_e_52_3 >= 0
   quantity_e_53_3 >= 0
   quantity_e_54_3 >= 0
   quantity_e_55_3 >= 0
   quantity_e_56_3 >= 0
   quantity_e_57_3 >= 0
   quantity_e_58_3 >= 0
   quantity_e_59_3 >= 0
   quantity_e_60_3 >= 0
   quantity_e_61_3 >= 0
   quantity_e_62_3 >= 0
   quantity_e_63_3 >= 0
   quantity_e_64_3 >= 0
   quantity_e_65_3 >= 0
   quantity_e_66_3 >= 0
   quantity_e_67_3 >= 0
   quantity_e_68_3 >= 0
   quantity_e_69_3 >= 0
   quantity_e_70_3 >= 0
   quantity_e_71_3 >= 0
   quantity_e_72_3 >= 0
   quantity_e_73_3 >= 0
   quantity_e_74_3 >= 0
   quantity_e_75_3 >= 0
Integer
   quantity_e_0_0
   quantity_e_1_0
   quantity_e_2_0
   quantity_e_3_0
   quantity_e_4_0
   quantity_e_5_0
   quantity_e_6_0
   quantity_e_7_0
   quantity_e_8_0
   quantity_e_9_0
   quantity_e_10_0
   quantity_e_11_0
   quantity_e_12_0
   quantity_e_13_0
   quantity_e_14_0
   quantity_e_15_0
   quantity_e_16_0
   quantity_e_17_0
   quantity_e_18_0
   quantity_e_19_0
   quantity_e_20_0
   quantity_e_21_0
   quantity_e_22_0
   quantity_e_23_0
   quantity_e_24_0
   quantity_e_25_0
   quantity_e_26_0
   quantity_e_27_0
   quantity_e_28_0
   quantity_e_29_0
   quantity_e_30_0
   quantity_e_31_0
   quantity_e_32_0
   quantity_e_33_0
   quantity_e_34_0
   quantity_e_35_0
   quantity_e_36_0
   quantity_e_37_0
   quantity_e_38_0
   quantity_e_39_0
   quantity_e_40_0
   quantity_e_41_0
   quantity_e_42_0
   quantity_e_43_0
   quantity_e_44_0
   quantity_e_45_0
   quantity_e_46_0
   quantity_e_47_0
   quantity_e_48_0
   quantity_e_49_0
   quantity_e_50_0
   quantity_e_51_0
   quantity_e_52_0
   quantity_e_53_0
   quantity_e_54_0
   quantity_e_55_0
   quantity_e_56_0
   quantity_e_57_0
   quantity_e_58_0
   quantity_e_59_0
   quantity_e_60_0
   quantity_e_61_0
   quantity_e_62_0
   quantity_e_63_0
   quantity_e_64_0
   quantity_e_65_0
   quantity_e_66_0
   quantity_e_67_0
   quantity_e_68_0
   quantity_e_69_0
   quantity_e_70_0
   quantity_e_71_0
   quantity_e_72_0
   quantity_e_73_0
   quantity_e_74_0
   quantity_e_75_0
   quantity_e_0_1
   quantity_e_1_1
   quantity_e_2_1
   quantity_e_3_1
   quantity_e_4_1
   quantity_e_5_1
   quantity_e_6_1
   quantity_e_7_1
   quantity_e_8_1
   quantity_e_9_1
   quantity_e_10_1
   quantity_e_11_1
   quantity_e_12_1
   quantity_e_13_1
   quantity_e_14_1
   quantity_e_15_1
   quantity_e_16_1
   quantity_e_17_1
   quantity_e_18_1
   quantity_e_19_1
   quantity_e_20_1
   quantity_e_21_1
   quantity_e_22_1
   quantity_e_23_1
   quantity_e_24_1
   quantity_e_25_1
   quantity_e_26_1
   quantity_e_27_1
   quantity_e_28_1
   quantity_e_29_1
   quantity_e_30_1
   quantity_e_31_1
   quantity_e_32_1
   quantity_e_33_1
   quantity_e_34_1
   quantity_e_35_1
   quantity_e_36_1
   quantity_e_37_1
   quantity_e_38_1
   quantity_e_39_1
   quantity_e_40_1
   quantity_e_41_1
   quantity_e_42_1
   quantity_e_43_1
   quantity_e_44_1
   quantity_e_45_1
   quantity_e_46_1
   quantity_e_47_1
   quantity_e_48_1
   quantity_e_49_1
   quantity_e_50_1
   quantity_e_51_1
   quantity_e_52_1
   quantity_e_53_1
   quantity_e_54_1
   quantity_e_55_1
   quantity_e_56_1
   quantity_e_57_1
   quantity_e_58_1
   quantity_e_59_1
   quantity_e_60_1
   quantity_e_61_1
   quantity_e_62_1
   quantity_e_63_1
   quantity_e_64_1
   quantity_e_65_1
   quantity_e_66_1
   quantity_e_67_1
   quantity_e_68_1
   quantity_e_69_1
   quantity_e_70_1
   quantity_e_71_1
   quantity_e_72_1
   quantity_e_73_1
   quantity_e_74_1
   quantity_e_75_1
   quantity_e_0_2
   quantity_e_1_2
   quantity_e_2_2
   quantity_e_3_2
   quantity_e_4_2
   quantity_e_5_2
   quantity_e_6_2
   quantity_e_7_2
   quantity_e_8_2
   quantity_e_9_2
   quantity_e_10_2
   quantity_e_11_2
   quantity_e_12_2
   quantity_e_13_2
   quantity_e_14_2
   quantity_e_15_2
   quantity_e_16_2
   quantity_e_17_2
   quantity_e_18_2
   quantity_e_19_2
   quantity_e_20_2
   quantity_e_21_2
   quantity_e_22_2
   quantity_e_23_2
   quantity_e_24_2
   quantity_e_25_2
   quantity_e_26_2
   quantity_e_27_2
   quantity_e_28_2
   quantity_e_29_2
   quantity_e_30_2
   quantity_e_31_2
   quantity_e_32_2
   quantity_e_33_2
   quantity_e_34_2
   quantity_e_35_2
   quantity_e_36_2
   quantity_e_37_2
   quantity_e_38_2
   quantity_e_39_2
   quantity_e_40_2
   quantity_e_41_2
   quantity_e_42_2
   quantity_e_43_2
   quantity_e_44_2
   quantity_e_45_2
   quantity_e_46_2
   quantity_e_47_2
   quantity_e_48_2
   quantity_e_49_2
   quantity_e_50_2
   quantity_e_51_2
   quantity_e_52_2
   quantity_e_53_2
   quantity_e_54_2
   quantity_e_55_2
   quantity_e_56_2
   quantity_e_57_2
   quantity_e_58_2
   quantity_e_59_2
   quantity_e_60_2
   quantity_e_61_2
   quantity_e_62_2
   quantity_e_63_2
   quantity_e_64_2
   quantity_e_65_2
   quantity_e_66_2
   quantity_e_67_2
   quantity_e_68_2
   quantity_e_69_2
   quantity_e_70_2
   quantity_e_71_2
   quantity_e_72_2
   quantity_e_73_2
   quantity_e_74_2
   quantity_e_75_2
   quantity_e_0_3
   quantity_e_1_3
   quantity_e_2_3
   quantity_e_3_3
   quantity_e_4_3
   quantity_e_5_3
   quantity_e_6_3
   quantity_e_7_3
   quantity_e_8_3
   quantity_e_9_3
   quantity_e_10_3
   quantity_e_11_3
   quantity_e_12_3
   quantity_e_13_3
   quantity_e_14_3
   quantity_e_15_3
   quantity_e_16_3
   quantity_e_17_3
   quantity_e_18_3
   quantity_e_19_3
   quantity_e_20_3
   quantity_e_21_3
   quantity_e_22_3
   quantity_e_23_3
   quantity_e_24_3
   quantity_e_25_3
   quantity_e_26_3
   quantity_e_27_3
   quantity_e_28_3
   quantity_e_29_3
   quantity_e_30_3
   quantity_e_31_3
   quantity_e_32_3
   quantity_e_33_3
   quantity_e_34_3
   quantity_e_35_3
   quantity_e_36_3
   quantity_e_37_3
   quantity_e_38_3
   quantity_e_39_3
   quantity_e_40_3
   quantity_e_41_3
   quantity_e_42_3
   quantity_e_43_3
   quantity_e_44_3
   quantity_e_45_3
   quantity_e_46_3
   quantity_e_47_3
   quantity_e_48_3
   quantity_e_49_3
   quantity_e_50_3
   quantity_e_51_3
   quantity_e_52_3
   quantity_e_53_3
   quantity_e_54_3
   quantity_e_55_3
   quantity_e_56_3
   quantity_e_57_3
   quantity_e_58_3
   quantity_e_59_3
   quantity_e_60_3
   quantity_e_61_3
   quantity_e_62_3
   quantity_e_63_3
   quantity_e_64_3
   quantity_e_65_3
   quantity_e_66_3
   quantity_e_67_3
   quantity_e_68_3
   quantity_e_69_3
   quantity_e_70_3
   quantity_e_71_3
   quantity_e_72_3
   quantity_e_73_3
   quantity_e_74_3
   quantity_e_75_3
End